p edge 40 87 20
v 1 5
v 1 29
v 2 12 39
v 3 10 16 38
v 2 11 25
v 1 36
v 1 18
v 2 13 37
v 2 27 31
v 1 32
v 1 34
v 2 2 40
v 2 20 35
v 2 3 30
v 3 1 6 23
v 4 7 14 24 28
v 1 26
v 4 4 17 19 22
v 2 15 33
v 3 8 9 21
e 1 3
e 1 4
e 1 6
e 1 17
e 1 33
e 1 36
e 2 12
e 2 20
e 2 24
e 2 29
e 2 31
e 2 33
e 3 7
e 3 12
e 3 15
e 3 20
e 4 16
e 4 18
e 4 35
e 4 36
e 5 26
e 6 18
e 6 28
e 7 12
e 7 14
e 7 38
e 8 15
e 8 40
e 9 24
e 9 26
e 9 27
e 10 12
e 10 15
e 10 23
e 11 40
e 12 14
e 12 20
e 12 33
e 12 34
e 13 20
e 13 23
e 13 31
e 13 35
e 14 16
e 14 27
e 14 30
e 14 39
e 15 23
e 15 34
e 16 18
e 16 40
e 17 29
e 17 33
e 17 39
e 18 23
e 18 26
e 18 27
e 18 28
e 18 37
e 19 22
e 19 26
e 19 27
e 19 30
e 20 36
e 20 40
e 21 22
e 22 23
e 22 33
e 22 34
e 23 40
e 24 31
e 25 27
e 25 36
e 26 36
e 27 30
e 28 33
e 28 39
e 29 31
e 29 35
e 29 40
e 31 40
e 32 36
e 33 38
e 34 37
e 34 38
e 35 38
e 36 37
